words_hard_train/1808.qaiger
aag 162 16 0 1 146
2
4
8
16
44
52
98
106
138
146
178
186
218
226
280
288
325
6 3 5
10 4 8
12 5 9
14 11 13
18 14 16
20 15 17
22 19 21
24 6 22
26 7 23
28 25 27
30 29 8
32 3 4
34 32 16
36 31 35
38 2 4
40 39 19
42 41 21
46 13 44
48 12 45
50 47 49
54 51 53
56 50 52
58 55 57
60 43 59
62 42 58
64 61 63
66 40 21
68 67 27
70 64 69
72 65 68
74 71 73
76 75 45
78 74 44
80 77 79
82 36 81
84 37 80
86 83 85
88 17 5
90 89 35
92 87 91
94 85 79
96 63 57
100 49 98
102 48 99
104 101 103
108 105 107
110 104 106
112 109 111
114 96 113
116 97 112
118 115 117
120 73 118
122 72 119
124 121 123
126 125 99
128 124 98
130 127 129
132 95 130
134 133 129
136 117 111
140 103 138
142 102 139
144 141 143
148 145 147
150 144 146
152 149 151
154 136 153
156 137 152
158 155 157
160 123 158
162 122 159
164 161 163
166 165 139
168 164 138
170 167 169
172 135 170
174 173 169
176 157 151
180 143 178
182 142 179
184 181 183
188 185 187
190 184 186
192 189 191
194 176 193
196 177 192
198 195 197
200 163 198
202 162 199
204 201 203
206 205 179
208 204 178
210 207 209
212 175 210
214 213 209
216 197 191
220 182 219
222 183 218
224 221 223
228 224 226
230 225 227
232 229 231
234 217 232
236 216 233
238 235 237
240 238 203
242 239 202
244 241 243
246 245 219
248 244 218
250 247 249
252 214 251
254 215 250
256 253 255
258 92 257
260 94 131
262 261 133
264 263 3
266 134 171
268 267 173
270 264 269
272 174 211
274 273 213
276 270 275
278 258 276
282 242 280
284 243 281
286 283 285
290 288 280
292 289 281
294 291 293
296 294 221
298 295 220
300 297 299
302 235 229
304 300 303
306 301 302
308 305 307
310 286 309
312 287 308
314 311 313
316 255 249
318 314 316
320 315 317
322 319 321
324 278 322
i0 2 y2[0]
i1 1 x1[0]
i2 1 x1[1]
i3 2 y2[1]
i4 1 x1[2]
i5 2 y2[2]
i6 1 x1[3]
i7 2 y2[3]
i8 1 x1[4]
i9 2 y2[4]
i10 1 x1[5]
i11 2 y2[5]
i12 1 x1[6]
i13 2 y2[6]
i14 1 x1[7]
i15 2 y2[7]
o0 bool[0]
c
simplified
  !=
    subtract
      1 x1
      subtract
        2 y2
        1 x1
    >> 2
      1
