words_hard_train/1808.qaiger.qdimacs
p cnf 162 439
a 2 4 69 140 109 49 22 89 0
e 1 3 5 6 7 8 9 10 11 12 13 14 15 16 17 18 19 20 21 23 24 25 26 27 28 29 30 31 32 33 34 35 36 37 38 39 40 41 42 43 44 45 46 47 48 50 51 52 53 54 55 56 57 58 59 60 61 62 63 64 65 66 67 68 70 71 72 73 74 75 76 77 78 79 80 81 82 83 84 85 86 87 88 90 91 92 93 94 95 96 97 98 99 100 101 102 103 104 105 106 107 108 110 111 112 113 114 115 116 117 118 119 120 121 122 123 124 125 126 127 128 129 130 131 132 133 134 135 136 137 138 139 141 142 143 144 145 146 147 148 149 150 151 152 153 154 155 156 157 158 159 160 161 162 0
1 2 3 0
-1 -3 0
-2 -3 0
-2 -4 5 0
2 -5 0
4 -5 0
2 4 6 0
-2 -6 0
-4 -6 0
5 6 7 0
-5 -7 0
-6 -7 0
-7 -8 9 0
7 -9 0
8 -9 0
7 8 10 0
-7 -10 0
-8 -10 0
9 10 11 0
-9 -11 0
-10 -11 0
-3 -11 12 0
3 -12 0
11 -12 0
3 11 13 0
-3 -13 0
-11 -13 0
12 13 14 0
-12 -14 0
-13 -14 0
14 -4 15 0
-14 -15 0
4 -15 0
1 -2 16 0
-1 -16 0
2 -16 0
-16 -8 17 0
16 -17 0
8 -17 0
15 17 18 0
-15 -18 0
-17 -18 0
-1 -2 19 0
1 -19 0
2 -19 0
19 9 20 0
-19 -20 0
-9 -20 0
20 10 21 0
-20 -21 0
-10 -21 0
6 -22 23 0
-6 -23 0
22 -23 0
-6 22 24 0
6 -24 0
-22 -24 0
23 24 25 0
-23 -25 0
-24 -25 0
25 26 27 0
-25 -27 0
-26 -27 0
-25 -26 28 0
25 -28 0
26 -28 0
27 28 29 0
-27 -29 0
-28 -29 0
21 29 30 0
-21 -30 0
-29 -30 0
-21 -29 31 0
21 -31 0
29 -31 0
30 31 32 0
-30 -32 0
-31 -32 0
-20 10 33 0
20 -33 0
-10 -33 0
33 13 34 0
-33 -34 0
-13 -34 0
-32 34 35 0
32 -35 0
-34 -35 0
32 -34 36 0
-32 -36 0
34 -36 0
35 36 37 0
-35 -37 0
-36 -37 0
37 22 38 0
-37 -38 0
-22 -38 0
-37 -22 39 0
37 -39 0
22 -39 0
38 39 40 0
-38 -40 0
-39 -40 0
-18 40 41 0
18 -41 0
-40 -41 0
18 -40 42 0
-18 -42 0
40 -42 0
41 42 43 0
-41 -43 0
-42 -43 0
8 2 44 0
-8 -44 0
-2 -44 0
44 17 45 0
-44 -45 0
-17 -45 0
43 45 46 0
-43 -46 0
-45 -46 0
42 39 47 0
-42 -47 0
-39 -47 0
31 28 48 0
-31 -48 0
-28 -48 0
24 -49 50 0
-24 -50 0
49 -50 0
-24 49 51 0
24 -51 0
-49 -51 0
50 51 52 0
-50 -52 0
-51 -52 0
52 53 54 0
-52 -54 0
-53 -54 0
-52 -53 55 0
52 -55 0
53 -55 0
54 55 56 0
-54 -56 0
-55 -56 0
-48 56 57 0
48 -57 0
-56 -57 0
48 -56 58 0
-48 -58 0
56 -58 0
57 58 59 0
-57 -59 0
-58 -59 0
36 -59 60 0
-36 -60 0
59 -60 0
-36 59 61 0
36 -61 0
-59 -61 0
60 61 62 0
-60 -62 0
-61 -62 0
62 49 63 0
-62 -63 0
-49 -63 0
-62 -49 64 0
62 -64 0
49 -64 0
63 64 65 0
-63 -65 0
-64 -65 0
47 -65 66 0
-47 -66 0
65 -66 0
66 64 67 0
-66 -67 0
-64 -67 0
58 55 68 0
-58 -68 0
-55 -68 0
51 -69 70 0
-51 -70 0
69 -70 0
-51 69 71 0
51 -71 0
-69 -71 0
70 71 72 0
-70 -72 0
-71 -72 0
72 73 74 0
-72 -74 0
-73 -74 0
-72 -73 75 0
72 -75 0
73 -75 0
74 75 76 0
-74 -76 0
-75 -76 0
-68 76 77 0
68 -77 0
-76 -77 0
68 -76 78 0
-68 -78 0
76 -78 0
77 78 79 0
-77 -79 0
-78 -79 0
61 -79 80 0
-61 -80 0
79 -80 0
-61 79 81 0
61 -81 0
-79 -81 0
80 81 82 0
-80 -82 0
-81 -82 0
82 69 83 0
-82 -83 0
-69 -83 0
-82 -69 84 0
82 -84 0
69 -84 0
83 84 85 0
-83 -85 0
-84 -85 0
67 -85 86 0
-67 -86 0
85 -86 0
86 84 87 0
-86 -87 0
-84 -87 0
78 75 88 0
-78 -88 0
-75 -88 0
71 -89 90 0
-71 -90 0
89 -90 0
-71 89 91 0
71 -91 0
-89 -91 0
90 91 92 0
-90 -92 0
-91 -92 0
92 93 94 0
-92 -94 0
-93 -94 0
-92 -93 95 0
92 -95 0
93 -95 0
94 95 96 0
-94 -96 0
-95 -96 0
-88 96 97 0
88 -97 0
-96 -97 0
88 -96 98 0
-88 -98 0
96 -98 0
97 98 99 0
-97 -99 0
-98 -99 0
81 -99 100 0
-81 -100 0
99 -100 0
-81 99 101 0
81 -101 0
-99 -101 0
100 101 102 0
-100 -102 0
-101 -102 0
102 89 103 0
-102 -103 0
-89 -103 0
-102 -89 104 0
102 -104 0
89 -104 0
103 104 105 0
-103 -105 0
-104 -105 0
87 -105 106 0
-87 -106 0
105 -106 0
106 104 107 0
-106 -107 0
-104 -107 0
98 95 108 0
-98 -108 0
-95 -108 0
-91 109 110 0
91 -110 0
-109 -110 0
91 -109 111 0
-91 -111 0
109 -111 0
110 111 112 0
-110 -112 0
-111 -112 0
-112 -113 114 0
112 -114 0
113 -114 0
112 113 115 0
-112 -115 0
-113 -115 0
114 115 116 0
-114 -116 0
-115 -116 0
108 -116 117 0
-108 -117 0
116 -117 0
-108 116 118 0
108 -118 0
-116 -118 0
117 118 119 0
-117 -119 0
-118 -119 0
-119 101 120 0
119 -120 0
-101 -120 0
119 -101 121 0
-119 -121 0
101 -121 0
120 121 122 0
-120 -122 0
-121 -122 0
122 109 123 0
-122 -123 0
-109 -123 0
-122 -109 124 0
122 -124 0
109 -124 0
123 124 125 0
-123 -125 0
-124 -125 0
-107 125 126 0
107 -126 0
-125 -126 0
107 -125 127 0
-107 -127 0
125 -127 0
126 127 128 0
-126 -128 0
-127 -128 0
-46 128 129 0
46 -129 0
-128 -129 0
-47 65 130 0
47 -130 0
-65 -130 0
130 66 131 0
-130 -131 0
-66 -131 0
131 1 132 0
-131 -132 0
-1 -132 0
-67 85 133 0
67 -133 0
-85 -133 0
133 86 134 0
-133 -134 0
-86 -134 0
-132 134 135 0
132 -135 0
-134 -135 0
-87 105 136 0
87 -136 0
-105 -136 0
136 106 137 0
-136 -137 0
-106 -137 0
-135 137 138 0
135 -138 0
-137 -138 0
-129 -138 139 0
129 -139 0
138 -139 0
-121 -140 141 0
121 -141 0
140 -141 0
121 140 142 0
-121 -142 0
-140 -142 0
141 142 143 0
-141 -143 0
-142 -143 0
-144 -140 145 0
144 -145 0
140 -145 0
144 140 146 0
-144 -146 0
-140 -146 0
145 146 147 0
-145 -147 0
-146 -147 0
-147 110 148 0
147 -148 0
-110 -148 0
147 -110 149 0
-147 -149 0
110 -149 0
148 149 150 0
-148 -150 0
-149 -150 0
117 114 151 0
-117 -151 0
-114 -151 0
-150 151 152 0
150 -152 0
-151 -152 0
150 -151 153 0
-150 -153 0
151 -153 0
152 153 154 0
-152 -154 0
-153 -154 0
-143 154 155 0
143 -155 0
-154 -155 0
143 -154 156 0
-143 -156 0
154 -156 0
155 156 157 0
-155 -157 0
-156 -157 0
127 124 158 0
-127 -158 0
-124 -158 0
-157 -158 159 0
157 -159 0
158 -159 0
157 158 160 0
-157 -160 0
-158 -160 0
159 160 161 0
-159 -161 0
-160 -161 0
-139 -161 162 0
139 -162 0
161 -162 0
-162 0
